N = 8;
Capacity = 17;
Demand = [6, 6, 10, 5, 1, 8, 9, 2];
Distance = [|
  0, 28, 28, 24, 11, 39, 35, 20, 12
| 28, 0, 41, 5, 20, 67, 52, 48, 39
| 28, 41, 0, 37, 25, 43, 11, 34, 24
| 24, 5, 37, 0, 15, 63, 48, 44, 35
| 11, 20, 25, 15, 0, 48, 35, 30, 20
| 39, 67, 43, 63, 48, 0, 38, 19, 28
| 35, 52, 11, 48, 35, 38, 0, 34, 28
| 20, 48, 34, 44, 30, 19, 34, 0, 11
| 12, 39, 24, 35, 20, 28, 28, 11, 0
|];
